(set-logic ALL)
(declare-const GEN1 Int)
(declare-const GEN2 Int)
(declare-const GEN3 Int)
(declare-const BAV4 Bool)
(declare-const BAV5 Bool)
(declare-const BAV6 Bool)
(declare-const BAV7 Bool)
(declare-const BAV8 Bool)
(declare-const BAV9 Bool)
(declare-const BAV10 Bool)
(declare-fun x () Real)
(declare-fun y () Real)
(assert (not (=> (and (> x GEN1) (< (* GEN2 x) y)) (and (> y GEN3) (< x y)))))
(assert (= BAV4 (=> (and (> x GEN1) (< (* GEN2 x) y)) (and (> y GEN3) (< x y)))))
(assert (= BAV5 (and (> x GEN1) (< (* GEN2 x) y))))
(assert (= BAV6 (> x GEN1)))
(assert (= BAV7 (< (* GEN2 x) y)))
(assert (= BAV8 (and (> y GEN3) (< x y))))
(assert (= BAV9 (> y GEN3)))
(assert (= BAV10 (< x y)))
(check-sat)
(get-model)